Route #1: 1 49 37 50 4 53 42 43 30 16 54 7 1
Route #2: 1 9 18 15 45 52 41 6 29 11 20 1
Route #3: 1 2 48 40 27 22 5 33 36 1
Route #4: 1 17 28 55 31 35 3 32 21 56 12 44 19 1
Route #5: 1 51 23 39 13 10 24 47 1
Route #6: 1 26 38 8 25 46 1
Route #7: 1 14 34 1
cost 873.3090182376185